NAME : instances/clustered-mixed-tsp/instance-74.tsp
COMMENT : No Comment
TYPE : TSP
DIMENSION: 56
EDGE_WEIGHT_TYPE : EUC_2D
NODE_COORD_SECTION
1 83 840 
2 522 360 
3 744 109 
4 608 405 
5 673 652 
6 285 244 
7 729 200 
8 952 343 
9 342 609 
10 595 353 
11 109 788 
12 194 36 
13 478 717 
14 212 752 
15 499 619 
16 777 717 
17 -158 144 
18 343 606 
19 108 310 
20 716 174 
21 495 226 
22 325 363 
23 965 460 
24 -197 339 
25 326 382 
26 599 564 
27 148 476 
28 1173 304 
29 442 51 
30 108 271 
31 891 33 
32 538 827 
33 95 518 
34 69 752 
35 428 192 
36 434 632 
37 904 267 
38 577 814 
39 417 356 
40 351 337 
41 700 597 
42 585 285 
43 457 74 
44 392 308 
45 391 252 
46 781 564 
47 337 400 
48 439 223 
49 -184 482 
50 768 174 
51 755 538 
52 699 275 
53 265 476 
54 748 671 
55 260 259 
56 995 957 
EOF
